\ Model Staff Scheduling Problem with Staff Fatigue Constraints
\ LP format - for model browsing. Use MPS format to capture full model detail.
Minimize
  x[0,0] + x[0,1] + x[0,2] + x[0,3] + x[1,0] + x[1,1] + x[1,2] + x[1,3]
   + x[2,0] + x[2,1] + x[2,2] + x[2,3] + x[3,0] + x[3,1] + x[3,2] + x[3,3]
   + x[4,0] + x[4,1] + x[4,2] + x[4,3] + x[5,0] + x[5,1] + x[5,2] + x[5,3]
   + x[6,0] + x[6,1] + x[6,2] + x[6,3] + x[7,0] + x[7,1] + x[7,2] + x[7,3]
   + x[8,0] + x[8,1] + x[8,2] + x[8,3]
Subject To
 R0: x[0,0] <= 2.009608360136085
 R1: x[0,1] <= 6.375055582348674
 R2: x[0,2] <= 5.115342997803981
 R3: x[0,3] <= 7.946988049743688
 R4: x[1,0] <= 0.048954293757256
 R5: x[1,1] <= 7.235498009886077
 R6: x[1,2] <= 4.294803560675025
 R7: x[1,3] <= 0.8667828127494648
 R8: x[2,0] <= 4.710479409472368
 R9: x[2,1] <= 7.85582818961626
 R10: x[2,2] <= 3.849602860866013
 R11: x[2,3] <= 3.956273734071074
 R12: x[3,0] <= 4.470634944906958
 R13: x[3,1] <= 1.567070476688075
 R14: x[3,2] <= 0.6330571277671542
 R15: x[3,3] <= 4.622716581554674
 R16: x[4,0] <= 7.059828397141014
 R17: x[4,1] <= 2.866919365172882
 R18: x[4,2] <= 7.445801662540046
 R19: x[4,3] <= 7.178122998095748
 R20: x[5,0] <= 7.447882938499093
 R21: x[5,1] <= 2.185576942331514
 R22: x[5,2] <= 1.079280137670994
 R23: x[5,3] <= 5.746226573499958
 R24: x[6,0] <= 6.340226546712054
 R25: x[6,1] <= 6.821934352166052
 R26: x[6,2] <= 5.108752418278991
 R27: x[6,3] <= 3.399905388125163
 R28: x[7,0] <= 1.178197963860444
 R29: x[7,1] <= 0.887261803121671
 R30: x[7,2] <= 1.316991153566313
 R31: x[7,3] <= 1.631127567813508
 R32: x[8,0] <= 2.009828163910362
 R33: x[8,1] <= 5.883326098902353
 R34: x[8,2] <= 7.075983552856552
 R35: x[8,3] <= 2.737202598331924
 R36: x[0,0] + x[0,1] + x[0,2] + x[0,3] + x[1,0] + x[1,1] + x[1,2] + x[1,3]
   + x[2,0] + x[2,1] + x[2,2] + x[2,3] + x[3,0] + x[3,1] + x[3,2] + x[3,3]
   + x[4,0] + x[4,1] + x[4,2] + x[4,3] + x[5,0] + x[5,1] + x[5,2] + x[5,3]
   + x[6,0] + x[6,1] + x[6,2] + x[6,3] + x[7,0] + x[7,1] + x[7,2] + x[7,3]
   + x[8,0] + x[8,1] + x[8,2] + x[8,3] >= 108.7869296726956
 R37: x[0,0] + x[0,1] + x[0,2] + x[0,3] <= 34.5899245717927
 R38: x[1,0] + x[1,1] + x[1,2] + x[1,3] <= 37.32796754726157
 R39: x[2,0] + x[2,1] + x[2,2] + x[2,3] <= 30.64579889894928
 R40: x[3,0] + x[3,1] + x[3,2] + x[3,3] <= 29.22408544333393
 R41: x[4,0] + x[4,1] + x[4,2] + x[4,3] <= 27.00708821024044
 R42: x[5,0] + x[5,1] + x[5,2] + x[5,3] <= 36.38001972966761
 R43: x[6,0] + x[6,1] + x[6,2] + x[6,3] <= 23.37607255108592
 R44: x[7,0] + x[7,1] + x[7,2] + x[7,3] <= 39.66802139054643
 R45: x[8,0] + x[8,1] + x[8,2] + x[8,3] <= 38.95975999743582
Bounds
End
